\ Model MPC
\ LP format - for model browsing. Use MPS format to capture full model detail.
Minimize
 [ 2.17014e-06 y[0,0] ^2 + 1.82326e-07 y[0,1] ^2 + 1.82326e-07 y[0,2] ^2
   + 1.54707e-06 y[0,3] ^2 + 2e-06 y[0,4] ^2 + 2.17014e-06 y[1,0] ^2
   + 1.82326e-07 y[1,1] ^2 + 1.82326e-07 y[1,2] ^2 + 1.54707e-06 y[1,3] ^2
   + 2e-06 y[1,4] ^2 + 2.17014e-06 y[2,0] ^2 + 1.82326e-07 y[2,1] ^2
   + 1.82326e-07 y[2,2] ^2 + 1.54707e-06 y[2,3] ^2 + 2e-06 y[2,4] ^2
   + 2.17014e-06 y[3,0] ^2 + 1.82326e-07 y[3,1] ^2 + 1.82326e-07 y[3,2] ^2
   + 1.54707e-06 y[3,3] ^2 + 2e-06 y[3,4] ^2 + 2.17014e-06 y[4,0] ^2
   + 1.82326e-07 y[4,1] ^2 + 1.82326e-07 y[4,2] ^2 + 1.54707e-06 y[4,3] ^2
   + 2e-06 y[4,4] ^2 + 2.17014e-06 y[5,0] ^2 + 1.82326e-07 y[5,1] ^2
   + 1.82326e-07 y[5,2] ^2 + 1.54707e-06 y[5,3] ^2 + 2e-06 y[5,4] ^2
   + 2.17014e-06 y[6,0] ^2 + 1.82326e-07 y[6,1] ^2 + 1.82326e-07 y[6,2] ^2
   + 1.54707e-06 y[6,3] ^2 + 2e-06 y[6,4] ^2 + 2.17014e-06 y[7,0] ^2
   + 1.82326e-07 y[7,1] ^2 + 1.82326e-07 y[7,2] ^2 + 1.54707e-06 y[7,3] ^2
   + 2e-06 y[7,4] ^2 + 2.17014e-06 y[8,0] ^2 + 1.82326e-07 y[8,1] ^2
   + 1.82326e-07 y[8,2] ^2 + 1.54707e-06 y[8,3] ^2 + 2e-06 y[8,4] ^2
   + 2.17014e-06 y[9,0] ^2 + 1.82326e-07 y[9,1] ^2 + 1.82326e-07 y[9,2] ^2
   + 1.54707e-06 y[9,3] ^2 + 2e-06 y[9,4] ^2 + 2.17014e-06 y[10,0] ^2
   + 1.82326e-07 y[10,1] ^2 + 1.82326e-07 y[10,2] ^2
   + 1.54707e-06 y[10,3] ^2 + 2e-06 y[10,4] ^2 + 0.1 z[0,0] ^2
   + 0.5 z[0,1] ^2 + 0.1 z[0,2] ^2 + 0.5 z[0,3] ^2 + 0.2 z[0,4] ^2
   + 0.1 z[1,0] ^2 + 0.5 z[1,1] ^2 + 0.1 z[1,2] ^2 + 0.5 z[1,3] ^2
   + 0.2 z[1,4] ^2 + 0.1 z[2,0] ^2 + 0.5 z[2,1] ^2 + 0.1 z[2,2] ^2
   + 0.5 z[2,3] ^2 + 0.2 z[2,4] ^2 + 0.1 z[3,0] ^2 + 0.5 z[3,1] ^2
   + 0.1 z[3,2] ^2 + 0.5 z[3,3] ^2 + 0.2 z[3,4] ^2 + 0.1 z[4,0] ^2
   + 0.5 z[4,1] ^2 + 0.1 z[4,2] ^2 + 0.5 z[4,3] ^2 + 0.2 z[4,4] ^2
   + 0.1 z[5,0] ^2 + 0.5 z[5,1] ^2 + 0.1 z[5,2] ^2 + 0.5 z[5,3] ^2
   + 0.2 z[5,4] ^2 + 0.1 z[6,0] ^2 + 0.5 z[6,1] ^2 + 0.1 z[6,2] ^2
   + 0.5 z[6,3] ^2 + 0.2 z[6,4] ^2 + 0.1 z[7,0] ^2 + 0.5 z[7,1] ^2
   + 0.1 z[7,2] ^2 + 0.5 z[7,3] ^2 + 0.2 z[7,4] ^2 + 0.1 z[8,0] ^2
   + 0.5 z[8,1] ^2 + 0.1 z[8,2] ^2 + 0.5 z[8,3] ^2 + 0.2 z[8,4] ^2
   + 0.1 z[9,0] ^2 + 0.5 z[9,1] ^2 + 0.1 z[9,2] ^2 + 0.5 z[9,3] ^2
   + 0.2 z[9,4] ^2 ] / 2 
Subject To
 R0: x[0,0] = 9
 R1: x[0,1] = 116
 R2: x[0,2] = 95
 R3: x[0,3] = 46
 R4: x[0,4] = 79
 R5: - x[0,0] + x[1,0] + 0.4166666666666667 u[0,0] = 7.972222222222222
 R6: - x[0,1] + x[1,1] + 0.4166666666666667 u[0,1] = 57.80555555555556
 R7: - x[0,2] + x[1,2] + 0.9444444444444444 u[0,2] = 72.83333333333334
 R8: - x[0,3] + x[1,3] + 0.9166666666666666 u[0,3] = 51.61111111111111
 R9: - x[0,4] + x[1,4] + 0.2222222222222222 u[0,4] = 14
 R10: u[0,0] - u[0,1] = 0
 R11: u[0,2] - u[0,3] + u[0,4] = -3
 R12: u[0,0] + u[0,2] + u[0,4] = 91
 R13: - x[0,0] + y[0,0] = 0
 R14: - x[0,1] + y[0,1] = 0
 R15: - x[0,2] + y[0,2] = 0
 R16: - x[0,3] + y[0,3] = 0
 R17: - x[0,4] + y[0,4] = 0
 R18: z[0,0] = 0
 R19: z[0,1] = 0
 R20: z[0,2] = 0
 R21: z[0,3] = 0
 R22: z[0,4] = 0
 R23: - x[1,0] + x[2,0] + 0.4166666666666667 u[1,0] = 7.972222222222222
 R24: - x[1,1] + x[2,1] + 0.4166666666666667 u[1,1] = 57.80555555555556
 R25: - x[1,2] + x[2,2] + 0.9444444444444444 u[1,2] = 72.83333333333334
 R26: - x[1,3] + x[2,3] + 0.9166666666666666 u[1,3] = 51.61111111111111
 R27: - x[1,4] + x[2,4] + 0.2222222222222222 u[1,4] = 14
 R28: u[1,0] - u[1,1] = 0
 R29: u[1,2] - u[1,3] + u[1,4] = -3
 R30: u[1,0] + u[1,2] + u[1,4] = 91
 R31: - x[1,0] + y[1,0] = 0
 R32: - x[1,1] + y[1,1] = 0
 R33: - x[1,2] + y[1,2] = 0
 R34: - x[1,3] + y[1,3] = 0
 R35: - x[1,4] + y[1,4] = 0
 R36: u[0,0] - u[1,0] + z[1,0] = 0
 R37: u[0,1] - u[1,1] + z[1,1] = 0
 R38: u[0,2] - u[1,2] + z[1,2] = 0
 R39: u[0,3] - u[1,3] + z[1,3] = 0
 R40: u[0,4] - u[1,4] + z[1,4] = 0
 R41: - x[2,0] + x[3,0] + 0.4166666666666667 u[2,0] = 0
 R42: - x[2,1] + x[3,1] + 0.4166666666666667 u[2,1] = 0
 R43: - x[2,2] + x[3,2] + 0.9444444444444444 u[2,2] = 0
 R44: - x[2,3] + x[3,3] + 0.9166666666666666 u[2,3] = 0
 R45: - x[2,4] + x[3,4] + 0.2222222222222222 u[2,4] = 0
 R46: u[2,0] - u[2,1] = 0
 R47: u[2,2] - u[2,3] + u[2,4] = -3
 R48: u[2,0] + u[2,2] + u[2,4] = 91
 R49: - x[2,0] + y[2,0] = 0
 R50: - x[2,1] + y[2,1] = 0
 R51: - x[2,2] + y[2,2] = 0
 R52: - x[2,3] + y[2,3] = 0
 R53: - x[2,4] + y[2,4] = 0
 R54: u[0,0] - u[2,0] + z[2,0] = 0
 R55: u[0,1] - u[2,1] + z[2,1] = 0
 R56: u[0,2] - u[2,2] + z[2,2] = 0
 R57: u[0,3] - u[2,3] + z[2,3] = 0
 R58: u[0,4] - u[2,4] + z[2,4] = 0
 R59: - x[3,0] + x[4,0] + 0.4166666666666667 u[3,0] = 0
 R60: - x[3,1] + x[4,1] + 0.4166666666666667 u[3,1] = 0
 R61: - x[3,2] + x[4,2] + 0.9444444444444444 u[3,2] = 0
 R62: - x[3,3] + x[4,3] + 0.9166666666666666 u[3,3] = 0
 R63: - x[3,4] + x[4,4] + 0.2222222222222222 u[3,4] = 0
 R64: u[3,0] - u[3,1] = 0
 R65: u[3,2] - u[3,3] + u[3,4] = -3
 R66: u[3,0] + u[3,2] + u[3,4] = 91
 R67: - x[3,0] + y[3,0] = 0
 R68: - x[3,1] + y[3,1] = 0
 R69: - x[3,2] + y[3,2] = 0
 R70: - x[3,3] + y[3,3] = 0
 R71: - x[3,4] + y[3,4] = 0
 R72: u[0,0] - u[3,0] + z[3,0] = 0
 R73: u[0,1] - u[3,1] + z[3,1] = 0
 R74: u[0,2] - u[3,2] + z[3,2] = 0
 R75: u[0,3] - u[3,3] + z[3,3] = 0
 R76: u[0,4] - u[3,4] + z[3,4] = 0
 R77: - x[4,0] + x[5,0] + 0.4166666666666667 u[4,0] = 0
 R78: - x[4,1] + x[5,1] + 0.4166666666666667 u[4,1] = 0
 R79: - x[4,2] + x[5,2] + 0.9444444444444444 u[4,2] = 0
 R80: - x[4,3] + x[5,3] + 0.9166666666666666 u[4,3] = 0
 R81: - x[4,4] + x[5,4] + 0.2222222222222222 u[4,4] = 0
 R82: u[4,0] - u[4,1] = 0
 R83: u[4,2] - u[4,3] + u[4,4] = -3
 R84: u[4,0] + u[4,2] + u[4,4] = 91
 R85: - x[4,0] + y[4,0] = 0
 R86: - x[4,1] + y[4,1] = 0
 R87: - x[4,2] + y[4,2] = 0
 R88: - x[4,3] + y[4,3] = 0
 R89: - x[4,4] + y[4,4] = 0
 R90: u[0,0] - u[4,0] + z[4,0] = 0
 R91: u[0,1] - u[4,1] + z[4,1] = 0
 R92: u[0,2] - u[4,2] + z[4,2] = 0
 R93: u[0,3] - u[4,3] + z[4,3] = 0
 R94: u[0,4] - u[4,4] + z[4,4] = 0
 R95: - x[5,0] + x[6,0] + 0.4166666666666667 u[5,0] = 0
 R96: - x[5,1] + x[6,1] + 0.4166666666666667 u[5,1] = 0
 R97: - x[5,2] + x[6,2] + 0.9444444444444444 u[5,2] = 0
 R98: - x[5,3] + x[6,3] + 0.9166666666666666 u[5,3] = 0
 R99: - x[5,4] + x[6,4] + 0.2222222222222222 u[5,4] = 0
 R100: u[5,0] - u[5,1] = 0
 R101: u[5,2] - u[5,3] + u[5,4] = -3
 R102: u[5,0] + u[5,2] + u[5,4] = 91
 R103: - x[5,0] + y[5,0] = 0
 R104: - x[5,1] + y[5,1] = 0
 R105: - x[5,2] + y[5,2] = 0
 R106: - x[5,3] + y[5,3] = 0
 R107: - x[5,4] + y[5,4] = 0
 R108: u[0,0] - u[5,0] + z[5,0] = 0
 R109: u[0,1] - u[5,1] + z[5,1] = 0
 R110: u[0,2] - u[5,2] + z[5,2] = 0
 R111: u[0,3] - u[5,3] + z[5,3] = 0
 R112: u[0,4] - u[5,4] + z[5,4] = 0
 R113: - x[6,0] + x[7,0] + 0.4166666666666667 u[6,0] = 0
 R114: - x[6,1] + x[7,1] + 0.4166666666666667 u[6,1] = 0
 R115: - x[6,2] + x[7,2] + 0.9444444444444444 u[6,2] = 0
 R116: - x[6,3] + x[7,3] + 0.9166666666666666 u[6,3] = 0
 R117: - x[6,4] + x[7,4] + 0.2222222222222222 u[6,4] = 0
 R118: u[6,0] - u[6,1] = 0
 R119: u[6,2] - u[6,3] + u[6,4] = -3
 R120: u[6,0] + u[6,2] + u[6,4] = 91
 R121: - x[6,0] + y[6,0] = 0
 R122: - x[6,1] + y[6,1] = 0
 R123: - x[6,2] + y[6,2] = 0
 R124: - x[6,3] + y[6,3] = 0
 R125: - x[6,4] + y[6,4] = 0
 R126: u[0,0] - u[6,0] + z[6,0] = 0
 R127: u[0,1] - u[6,1] + z[6,1] = 0
 R128: u[0,2] - u[6,2] + z[6,2] = 0
 R129: u[0,3] - u[6,3] + z[6,3] = 0
 R130: u[0,4] - u[6,4] + z[6,4] = 0
 R131: - x[7,0] + x[8,0] + 0.4166666666666667 u[7,0] = 0
 R132: - x[7,1] + x[8,1] + 0.4166666666666667 u[7,1] = 0
 R133: - x[7,2] + x[8,2] + 0.9444444444444444 u[7,2] = 0
 R134: - x[7,3] + x[8,3] + 0.9166666666666666 u[7,3] = 0
 R135: - x[7,4] + x[8,4] + 0.2222222222222222 u[7,4] = 0
 R136: u[7,0] - u[7,1] = 0
 R137: u[7,2] - u[7,3] + u[7,4] = -3
 R138: u[7,0] + u[7,2] + u[7,4] = 91
 R139: - x[7,0] + y[7,0] = 0
 R140: - x[7,1] + y[7,1] = 0
 R141: - x[7,2] + y[7,2] = 0
 R142: - x[7,3] + y[7,3] = 0
 R143: - x[7,4] + y[7,4] = 0
 R144: u[0,0] - u[7,0] + z[7,0] = 0
 R145: u[0,1] - u[7,1] + z[7,1] = 0
 R146: u[0,2] - u[7,2] + z[7,2] = 0
 R147: u[0,3] - u[7,3] + z[7,3] = 0
 R148: u[0,4] - u[7,4] + z[7,4] = 0
 R149: - x[8,0] + x[9,0] + 0.4166666666666667 u[8,0] = 0
 R150: - x[8,1] + x[9,1] + 0.4166666666666667 u[8,1] = 0
 R151: - x[8,2] + x[9,2] + 0.9444444444444444 u[8,2] = 0
 R152: - x[8,3] + x[9,3] + 0.9166666666666666 u[8,3] = 0
 R153: - x[8,4] + x[9,4] + 0.2222222222222222 u[8,4] = 0
 R154: u[8,0] - u[8,1] = 0
 R155: u[8,2] - u[8,3] + u[8,4] = -3
 R156: u[8,0] + u[8,2] + u[8,4] = 91
 R157: - x[8,0] + y[8,0] = 0
 R158: - x[8,1] + y[8,1] = 0
 R159: - x[8,2] + y[8,2] = 0
 R160: - x[8,3] + y[8,3] = 0
 R161: - x[8,4] + y[8,4] = 0
 R162: u[0,0] - u[8,0] + z[8,0] = 0
 R163: u[0,1] - u[8,1] + z[8,1] = 0
 R164: u[0,2] - u[8,2] + z[8,2] = 0
 R165: u[0,3] - u[8,3] + z[8,3] = 0
 R166: u[0,4] - u[8,4] + z[8,4] = 0
 R167: - x[9,0] + x[10,0] + 0.4166666666666667 u[9,0] = 0
 R168: - x[9,1] + x[10,1] + 0.4166666666666667 u[9,1] = 0
 R169: - x[9,2] + x[10,2] + 0.9444444444444444 u[9,2] = 0
 R170: - x[9,3] + x[10,3] + 0.9166666666666666 u[9,3] = 0
 R171: - x[9,4] + x[10,4] + 0.2222222222222222 u[9,4] = 0
 R172: u[9,0] - u[9,1] = 0
 R173: u[9,2] - u[9,3] + u[9,4] = -3
 R174: u[9,0] + u[9,2] + u[9,4] = 91
 R175: - x[9,0] + y[9,0] = 0
 R176: - x[9,1] + y[9,1] = 0
 R177: - x[9,2] + y[9,2] = 0
 R178: - x[9,3] + y[9,3] = 0
 R179: - x[9,4] + y[9,4] = 0
 R180: u[0,0] - u[9,0] + z[9,0] = 0
 R181: u[0,1] - u[9,1] + z[9,1] = 0
 R182: u[0,2] - u[9,2] + z[9,2] = 0
 R183: u[0,3] - u[9,3] + z[9,3] = 0
 R184: u[0,4] - u[9,4] + z[9,4] = 0
 R185: - x[10,0] + y[10,0] = 0
 R186: - x[10,1] + y[10,1] = 0
 R187: - x[10,2] + y[10,2] = 0
 R188: - x[10,3] + y[10,3] = 0
 R189: - x[10,4] + y[10,4] = 0
 R190: u[0,0] >= 29
 R191: u[0,2] >= 30
 R192: u[0,3] >= 17
 R193: u[0,4] >= 13
 R194: - u[0,0] + u[0,3] >= 0
 R195: - u[0,0] + u[0,2] >= 0
 R196: u[0,2] - u[0,4] >= 0
Bounds
 x[0,0] <= 250
 x[0,1] <= 250
 x[0,2] <= 400
 x[0,3] <= 400
 x[0,4] <= 120
 x[1,0] <= 250
 x[1,1] <= 250
 x[1,2] <= 400
 x[1,3] <= 400
 x[1,4] <= 120
 x[2,0] <= 250
 x[2,1] <= 250
 x[2,2] <= 400
 x[2,3] <= 400
 x[2,4] <= 120
 x[3,0] <= 250
 x[3,1] <= 250
 x[3,2] <= 400
 x[3,3] <= 400
 x[3,4] <= 120
 x[4,0] <= 250
 x[4,1] <= 250
 x[4,2] <= 400
 x[4,3] <= 400
 x[4,4] <= 120
 x[5,0] <= 250
 x[5,1] <= 250
 x[5,2] <= 400
 x[5,3] <= 400
 x[5,4] <= 120
 x[6,0] <= 250
 x[6,1] <= 250
 x[6,2] <= 400
 x[6,3] <= 400
 x[6,4] <= 120
 x[7,0] <= 250
 x[7,1] <= 250
 x[7,2] <= 400
 x[7,3] <= 400
 x[7,4] <= 120
 x[8,0] <= 250
 x[8,1] <= 250
 x[8,2] <= 400
 x[8,3] <= 400
 x[8,4] <= 120
 x[9,0] <= 250
 x[9,1] <= 250
 x[9,2] <= 400
 x[9,3] <= 400
 x[9,4] <= 120
 x[10,0] <= 250
 x[10,1] <= 250
 x[10,2] <= 400
 x[10,3] <= 400
 x[10,4] <= 120
 y[0,0] free
 y[0,1] free
 y[0,2] free
 y[0,3] free
 y[0,4] free
 y[1,0] free
 y[1,1] free
 y[1,2] free
 y[1,3] free
 y[1,4] free
 y[2,0] free
 y[2,1] free
 y[2,2] free
 y[2,3] free
 y[2,4] free
 y[3,0] free
 y[3,1] free
 y[3,2] free
 y[3,3] free
 y[3,4] free
 y[4,0] free
 y[4,1] free
 y[4,2] free
 y[4,3] free
 y[4,4] free
 y[5,0] free
 y[5,1] free
 y[5,2] free
 y[5,3] free
 y[5,4] free
 y[6,0] free
 y[6,1] free
 y[6,2] free
 y[6,3] free
 y[6,4] free
 y[7,0] free
 y[7,1] free
 y[7,2] free
 y[7,3] free
 y[7,4] free
 y[8,0] free
 y[8,1] free
 y[8,2] free
 y[8,3] free
 y[8,4] free
 y[9,0] free
 y[9,1] free
 y[9,2] free
 y[9,3] free
 y[9,4] free
 y[10,0] free
 y[10,1] free
 y[10,2] free
 y[10,3] free
 y[10,4] free
 z[0,0] free
 z[0,1] free
 z[0,2] free
 z[0,3] free
 z[0,4] free
 z[1,0] free
 z[1,1] free
 z[1,2] free
 z[1,3] free
 z[1,4] free
 z[2,0] free
 z[2,1] free
 z[2,2] free
 z[2,3] free
 z[2,4] free
 z[3,0] free
 z[3,1] free
 z[3,2] free
 z[3,3] free
 z[3,4] free
 z[4,0] free
 z[4,1] free
 z[4,2] free
 z[4,3] free
 z[4,4] free
 z[5,0] free
 z[5,1] free
 z[5,2] free
 z[5,3] free
 z[5,4] free
 z[6,0] free
 z[6,1] free
 z[6,2] free
 z[6,3] free
 z[6,4] free
 z[7,0] free
 z[7,1] free
 z[7,2] free
 z[7,3] free
 z[7,4] free
 z[8,0] free
 z[8,1] free
 z[8,2] free
 z[8,3] free
 z[8,4] free
 z[9,0] free
 z[9,1] free
 z[9,2] free
 z[9,3] free
 z[9,4] free
Generals
 u[0,0] u[0,1] u[0,2] u[0,3] u[0,4] u[1,0] u[1,1] u[1,2] u[1,3] u[1,4]
 u[2,0] u[2,1] u[2,2] u[2,3] u[2,4] u[3,0] u[3,1] u[3,2] u[3,3] u[3,4]
 u[4,0] u[4,1] u[4,2] u[4,3] u[4,4] u[5,0] u[5,1] u[5,2] u[5,3] u[5,4]
 u[6,0] u[6,1] u[6,2] u[6,3] u[6,4] u[7,0] u[7,1] u[7,2] u[7,3] u[7,4]
 u[8,0] u[8,1] u[8,2] u[8,3] u[8,4] u[9,0] u[9,1] u[9,2] u[9,3] u[9,4]
End
